projected/problems_b25_r0_d7_m100_s666/_DIMACS/b25_d7_r0_s666_038.cnf
p cnf 225 369 25
c p show 1 2 3 4 5 6 7 8 9 10 11 12 13 14 15 16 17 18 19 20 21 22 23 24 25
-126 -2 -9 0
-127 1 0
-127 19 0
-128 127 0
-128 126 0
-129 25 0
-129 12 0
-130 -3 0
-130 12 0
-131 130 0
-131 129 0
-132 131 128 0
-133 -25 -12 0
-134 3 -12 0
-135 134 133 0
-136 2 0
-136 9 0
-137 -1 -19 0
-139 137 136 0
-140 139 135 0
-141 140 0
-141 132 0
-142 -10 18 0
-143 -21 14 0
-145 143 0
-145 142 0
-146 -12 1 0
-147 -19 -24 0
-148 147 146 0
-149 148 0
-149 145 0
-151 149 141 0
-152 25 -9 0
-153 -3 -4 0
-154 153 152 0
-155 -8 -13 0
-157 -24 0
-157 -3 0
-158 157 155 0
-159 158 154 0
-160 -10 12 0
-161 6 23 0
-163 161 160 0
-164 -25 -7 0
-165 -21 0
-165 8 0
-166 165 164 0
-167 166 163 0
-169 167 159 0
-170 169 151 0
-171 -16 0
-171 9 0
-172 13 0
-172 4 0
-173 172 171 0
-175 17 0
-175 -7 0
-176 -17 0
-177 176 175 0
-178 177 173 0
-179 -22 7 0
-181 11 21 0
-182 181 0
-182 179 0
-183 2 0
-183 4 0
-184 8 0
-184 25 0
-185 184 0
-185 183 0
-186 185 0
-186 182 0
-187 186 178 0
-188 -24 0
-188 -15 0
-189 5 0
-189 20 0
-190 -20 0
-190 -5 0
-191 190 189 0
-192 191 0
-192 188 0
-193 2 4 0
-194 3 18 0
-195 194 193 0
-196 195 0
-196 192 0
-197 -19 19 0
-198 -20 -5 0
-199 198 197 0
-200 -23 0
-200 -7 0
-201 12 -25 0
-202 201 200 0
-203 -12 0
-203 25 0
-204 23 7 0
-205 204 203 0
-206 205 0
-206 202 0
-207 206 0
-207 199 0
-208 207 196 0
-209 208 187 0
-210 24 15 0
-211 -5 -20 0
-212 20 5 0
-213 212 0
-213 211 0
-214 213 210 0
-215 -2 0
-215 -4 0
-216 -3 0
-216 -18 0
-217 216 0
-217 215 0
-218 217 214 0
-219 19 0
-219 -19 0
-220 20 0
-220 5 0
-221 220 0
-221 219 0
-222 203 0
-222 204 0
-223 200 0
-223 201 0
-224 223 222 0
-225 224 221 0
-26 225 0
-26 218 0
-138 16 -9 0
-144 -13 -4 0
-150 144 0
-150 138 0
-156 -17 7 0
-162 17 0
-168 162 0
-168 156 0
-174 168 0
-174 150 0
-180 22 0
-180 -7 0
-27 -11 0
-27 -21 0
-28 27 180 0
-29 -2 -4 0
-30 -8 -25 0
-31 30 29 0
-32 31 28 0
-33 32 0
-33 174 0
-34 33 26 0
-35 34 0
-35 209 0
-36 35 0
-36 170 0
-37 -17 18 0
-38 21 0
-38 24 0
-39 38 0
-39 37 0
-40 -17 8 0
-41 8 0
-41 -16 0
-42 41 40 0
-43 42 39 0
-44 -21 21 0
-45 2 0
-45 25 0
-46 45 44 0
-47 -3 0
-48 3 0
-49 48 0
-49 47 0
-50 -1 9 0
-51 50 49 0
-52 51 46 0
-53 52 0
-53 43 0
-54 9 12 0
-55 -12 -9 0
-56 55 0
-56 54 0
-57 -10 24 0
-58 57 0
-58 56 0
-59 -22 0
-59 -25 0
-60 24 0
-60 13 0
-61 60 59 0
-62 61 0
-62 58 0
-63 21 -6 0
-64 6 -21 0
-65 64 0
-65 63 0
-66 -2 0
-66 18 0
-67 66 0
-67 65 0
-68 21 0
-69 17 0
-69 -1 0
-70 69 68 0
-71 70 67 0
-72 71 0
-72 62 0
-73 72 0
-73 53 0
-74 -20 -11 0
-75 -5 -11 0
-76 75 74 0
-77 4 0
-77 7 0
-78 9 -4 0
-79 78 77 0
-80 79 0
-80 76 0
-81 -19 0
-81 -21 0
-82 1 0
-82 -2 0
-83 82 81 0
-84 -16 0
-84 -1 0
-85 -2 0
-85 22 0
-86 85 0
-86 84 0
-87 86 83 0
-88 87 0
-88 80 0
-89 19 21 0
-90 -1 2 0
-91 90 0
-91 89 0
-92 16 1 0
-93 2 -22 0
-94 93 92 0
-95 94 0
-95 91 0
-96 20 0
-96 11 0
-97 5 0
-97 11 0
-98 97 0
-98 96 0
-99 -4 -7 0
-100 -9 0
-100 4 0
-101 100 0
-101 99 0
-102 101 98 0
-103 102 0
-103 95 0
-104 103 88 0
-105 14 -25 0
-106 22 0
-106 11 0
-107 106 0
-107 105 0
-108 4 0
-109 -7 0
-109 21 0
-110 109 108 0
-111 7 -21 0
-112 -4 0
-113 112 111 0
-114 113 0
-114 110 0
-115 114 107 0
-116 6 18 0
-117 -14 0
-117 -4 0
-118 117 0
-118 116 0
-119 -10 -24 0
-120 -3 -25 0
-121 120 119 0
-122 121 0
-122 118 0
-123 122 0
-123 115 0
-124 123 104 0
-125 124 73 0
125 0
36 0
-129 -133 0
-133 -129 0
-134 -130 0
-135 -131 0
-136 -126 0
-137 -127 0
-139 -128 0
-128 -139 0
-188 -210 0
-213 -191 0
-191 -213 0
-192 -214 0
-214 -192 0
-215 -193 0
-193 -215 0
-194 -216 0
-195 -217 0
-217 -195 0
-218 -196 0
-197 -219 0
-220 -198 0
-198 -220 0
-199 -221 0
-221 -199 0
-201 -203 0
-203 -201 0
-200 -204 0
-206 -224 0
-224 -206 0
-225 -207 0
-26 -208 0
-171 -138 0
-138 -171 0
-172 -144 0
-144 -172 0
-150 -173 0
-173 -150 0
-175 -156 0
-162 -176 0
-176 -162 0
-177 -168 0
-178 -174 0
-179 -180 0
-180 -179 0
-27 -181 0
-28 -182 0
-182 -28 0
-183 -29 0
-29 -183 0
-30 -184 0
-31 -185 0
-185 -31 0
-186 -32 0
-187 -33 0
-81 -89 0
-89 -81 0
-82 -90 0
-90 -82 0
-91 -83 0
-92 -84 0
-93 -85 0
-94 -86 0
-95 -87 0
-87 -95 0
-96 -74 0
-75 -97 0
-97 -75 0
-98 -76 0
-76 -98 0
-99 -77 0
-77 -99 0
-100 -78 0
-78 -100 0
-79 -101 0
-80 -102 0
-102 -80 0
-109 -111 0
-111 -109 0
-112 -108 0
-108 -112 0
