projected/problems_b25_r0_d7_m100_s666/b25_d7_r0_s666_038.smt2
(set-logic QF_UF)
(declare-fun A0 () Bool)
(declare-fun A1 () Bool)
(declare-fun A2 () Bool)
(declare-fun A3 () Bool)
(declare-fun A4 () Bool)
(declare-fun A5 () Bool)
(declare-fun A6 () Bool)
(declare-fun A7 () Bool)
(declare-fun A8 () Bool)
(declare-fun A9 () Bool)
(declare-fun A10 () Bool)
(declare-fun A11 () Bool)
(declare-fun A12 () Bool)
(declare-fun A13 () Bool)
(declare-fun A14 () Bool)
(declare-fun A15 () Bool)
(declare-fun A16 () Bool)
(declare-fun A17 () Bool)
(declare-fun A18 () Bool)
(declare-fun A19 () Bool)
(declare-fun A20 () Bool)
(declare-fun A21 () Bool)
(declare-fun A22 () Bool)
(declare-fun A23 () Bool)
(declare-fun A24 () Bool)
(assert (let ((.def_0 (and A24 A11))) (let ((.def_1 (not .def_0))) (let ((.def_2 (not A11))) (let ((.def_3 (or A2 .def_2))) (let ((.def_4 (or .def_3 .def_1))) (let ((.def_5 (and A1 A8))) (let ((.def_6 (not A18))) (let ((.def_7 (not A0))) (let ((.def_8 (or .def_7 .def_6))) (let ((.def_9 (or .def_8 .def_5))) (let ((.def_10 (not .def_9))) (let ((.def_11 (= .def_10 .def_4))) (let ((.def_12 (not .def_11))) (let ((.def_13 (not A17))) (let ((.def_14 (and A9 .def_13))) (let ((.def_15 (not .def_14))) (let ((.def_16 (not A13))) (let ((.def_17 (and A20 .def_16))) (let ((.def_18 (not .def_17))) (let ((.def_19 (and .def_18 .def_15))) (let ((.def_20 (not .def_19))) (let ((.def_21 (and A11 .def_7))) (let ((.def_22 (not A23))) (let ((.def_23 (or .def_6 .def_22))) (let ((.def_24 (not .def_23))) (let ((.def_25 (and .def_24 .def_21))) (let ((.def_26 (or .def_25 .def_20))) (let ((.def_27 (and .def_26 .def_12))) (let ((.def_28 (not .def_27))) (let ((.def_29 (not A8))) (let ((.def_30 (or A24 .def_29))) (let ((.def_31 (and A2 A3))) (let ((.def_32 (not .def_31))) (let ((.def_33 (or .def_32 .def_30))) (let ((.def_34 (not .def_33))) (let ((.def_35 (not A12))) (let ((.def_36 (not A7))) (let ((.def_37 (or .def_36 .def_35))) (let ((.def_38 (not A2))) (let ((.def_39 (and .def_22 .def_38))) (let ((.def_40 (or .def_39 .def_37))) (let ((.def_41 (not .def_40))) (let ((.def_42 (and .def_41 .def_34))) (let ((.def_43 (not A9))) (let ((.def_44 (or .def_43 A11))) (let ((.def_45 (not A22))) (let ((.def_46 (not A5))) (let ((.def_47 (and .def_46 .def_45))) (let ((.def_48 (not .def_47))) (let ((.def_49 (or .def_48 .def_44))) (let ((.def_50 (not A6))) (let ((.def_51 (not A24))) (let ((.def_52 (or .def_51 .def_50))) (let ((.def_53 (or A20 .def_36))) (let ((.def_54 (not .def_53))) (let ((.def_55 (or .def_54 .def_52))) (let ((.def_56 (or .def_55 .def_49))) (let ((.def_57 (not .def_56))) (let ((.def_58 (and .def_57 .def_42))) (let ((.def_59 (not .def_58))) (let ((.def_60 (or .def_59 .def_28))) (let ((.def_61 (not A14))) (let ((.def_62 (and .def_22 .def_61))) (let ((.def_63 (not A19))) (let ((.def_64 (= .def_63 A4))) (let ((.def_65 (not .def_64))) (let ((.def_66 (and .def_65 .def_62))) (let ((.def_67 (not .def_66))) (let ((.def_68 (not A3))) (let ((.def_69 (not A1))) (let ((.def_70 (and .def_69 .def_68))) (let ((.def_71 (not .def_70))) (let ((.def_72 (or A2 A17))) (let ((.def_73 (or .def_72 .def_71))) (let ((.def_74 (not .def_73))) (let ((.def_75 (or .def_74 .def_67))) (let ((.def_76 (or .def_6 A18))) (let ((.def_77 (and A19 A4))) (let ((.def_78 (not .def_77))) (let ((.def_79 (or .def_78 .def_76))) (let ((.def_80 (not .def_79))) (let ((.def_81 (or A11 .def_51))) (let ((.def_82 (not .def_81))) (let ((.def_83 (and .def_45 .def_50))) (let ((.def_84 (= .def_83 .def_82))) (let ((.def_85 (not .def_84))) (let ((.def_86 (or .def_85 .def_80))) (let ((.def_87 (and .def_86 .def_75))) (let ((.def_88 (not A15))) (let ((.def_89 (and .def_88 A8))) (let ((.def_90 (not .def_89))) (let ((.def_91 (and A12 A3))) (let ((.def_92 (not .def_91))) (let ((.def_93 (and .def_92 .def_90))) (let ((.def_94 (not .def_93))) (let ((.def_95 (and A16 .def_50))) (let ((.def_96 (and A16 A16))) (let ((.def_97 (not .def_96))) (let ((.def_98 (or .def_97 .def_95))) (let ((.def_99 (or .def_98 .def_94))) (let ((.def_100 (not A21))) (let ((.def_101 (or .def_100 A6))) (let ((.def_102 (not .def_101))) (let ((.def_103 (not A20))) (let ((.def_104 (not A10))) (let ((.def_105 (and .def_104 .def_103))) (let ((.def_106 (or .def_105 .def_102))) (let ((.def_107 (not .def_106))) (let ((.def_108 (and A1 A3))) (let ((.def_109 (not .def_108))) (let ((.def_110 (or .def_36 .def_51))) (let ((.def_111 (or .def_110 .def_109))) (let ((.def_112 (not .def_111))) (let ((.def_113 (and .def_112 .def_107))) (let ((.def_114 (or .def_113 .def_99))) (let ((.def_115 (= .def_114 .def_87))) (let ((.def_116 (and .def_115 .def_60))) (let ((.def_117 (not .def_116))) (let ((.def_118 (and A16 .def_13))) (let ((.def_119 (not .def_118))) (let ((.def_120 (or .def_103 .def_22))) (let ((.def_121 (not .def_120))) (let ((.def_122 (and .def_121 .def_119))) (let ((.def_123 (not A16))) (let ((.def_124 (or .def_123 A7))) (let ((.def_125 (not .def_124))) (let ((.def_126 (or .def_36 A15))) (let ((.def_127 (and .def_126 .def_125))) (let ((.def_128 (not .def_127))) (let ((.def_129 (or .def_128 .def_122))) (let ((.def_130 (and A20 .def_103))) (let ((.def_131 (and A1 A24))) (let ((.def_132 (not .def_131))) (let ((.def_133 (and .def_132 .def_130))) (let ((.def_134 (not .def_133))) (let ((.def_135 (= .def_38 A2))) (let ((.def_136 (not .def_135))) (let ((.def_137 (and A0 .def_29))) (let ((.def_138 (and .def_137 .def_136))) (let ((.def_139 (not .def_138))) (let ((.def_140 (or .def_139 .def_134))) (let ((.def_141 (and .def_140 .def_129))) (let ((.def_142 (= A11 .def_29))) (let ((.def_143 (not .def_142))) (let ((.def_144 (or .def_43 A23))) (let ((.def_145 (not .def_144))) (let ((.def_146 (or .def_145 .def_143))) (let ((.def_147 (or A21 A24))) (let ((.def_148 (not .def_147))) (let ((.def_149 (or .def_22 .def_35))) (let ((.def_150 (not .def_149))) (let ((.def_151 (or .def_150 .def_148))) (let ((.def_152 (not .def_151))) (let ((.def_153 (or .def_152 .def_146))) (let ((.def_154 (not .def_153))) (let ((.def_155 (= .def_46 .def_103))) (let ((.def_156 (not .def_155))) (let ((.def_157 (and .def_69 A17))) (let ((.def_158 (not .def_157))) (let ((.def_159 (or .def_158 .def_156))) (let ((.def_160 (or .def_103 .def_103))) (let ((.def_161 (not .def_160))) (let ((.def_162 (and A16 .def_7))) (let ((.def_163 (or .def_162 .def_161))) (let ((.def_164 (not .def_163))) (let ((.def_165 (and .def_164 .def_159))) (let ((.def_166 (not .def_165))) (let ((.def_167 (and .def_166 .def_154))) (let ((.def_168 (and .def_167 .def_141))) (let ((.def_169 (not .def_168))) (let ((.def_170 (and .def_6 .def_103))) (let ((.def_171 (not .def_170))) (let ((.def_172 (and A0 .def_69))) (let ((.def_173 (not .def_172))) (let ((.def_174 (and .def_173 .def_171))) (let ((.def_175 (or A15 A0))) (let ((.def_176 (or A1 .def_100))) (let ((.def_177 (or .def_176 .def_175))) (let ((.def_178 (and .def_177 .def_174))) (let ((.def_179 (not .def_178))) (let ((.def_180 (and A19 A10))) (let ((.def_181 (not A4))) (let ((.def_182 (or .def_181 .def_104))) (let ((.def_183 (not .def_182))) (let ((.def_184 (and .def_183 .def_180))) (let ((.def_185 (not .def_184))) (let ((.def_186 (or .def_68 .def_50))) (let ((.def_187 (not .def_186))) (let ((.def_188 (and .def_29 A3))) (let ((.def_189 (not .def_188))) (let ((.def_190 (or .def_189 .def_187))) (let ((.def_191 (and .def_190 .def_185))) (let ((.def_192 (not .def_191))) (let ((.def_193 (= .def_192 .def_179))) (let ((.def_194 (or A13 .def_51))) (let ((.def_195 (and A21 A10))) (let ((.def_196 (and .def_195 .def_194))) (let ((.def_197 (not .def_196))) (let ((.def_198 (and .def_50 A20))) (let ((.def_199 (not .def_198))) (let ((.def_200 (or .def_68 .def_68))) (let ((.def_201 (not .def_200))) (let ((.def_202 (= .def_201 .def_199))) (let ((.def_203 (not .def_202))) (let ((.def_204 (and .def_203 .def_197))) (let ((.def_205 (or A5 A17))) (let ((.def_206 (and .def_16 .def_68))) (let ((.def_207 (and .def_206 .def_205))) (let ((.def_208 (and A9 A23))) (let ((.def_209 (and A2 A24))) (let ((.def_210 (and .def_209 .def_208))) (let ((.def_211 (not .def_210))) (let ((.def_212 (and .def_211 .def_207))) (let ((.def_213 (not .def_212))) (let ((.def_214 (or .def_213 .def_204))) (let ((.def_215 (and .def_214 .def_193))) (let ((.def_216 (and .def_215 .def_169))) (let ((.def_217 (or .def_216 .def_117))) (let ((.def_218 (not .def_217))) .def_218))))))))))))))))))))))))))))))))))))))))))))))))))))))))))))))))))))))))))))))))))))))))))))))))))))))))))))))))))))))))))))))))))))))))))))))))))))))))))))))))))))))))))))))))))))))))))))))))))))))))))))))))))))))))))))
(check-sat)
